num_offers = 25;
num_halls = 10;
start=[29,55,15,44,12,24,38,42,72,8,45,34,82,61,38,33,51,16,71,22,14,29,3,72,48];
end=[60,71,18,91,54,85,100,44,90,23,92,88,94,69,66,58,72,80,79,46,15,56,86,85,69];
price=[2778,999,225,1652,714,4148,2199,164,1580,276,3740,1090,1087,858,2885,1428,1378,4253,890,1536,20,830,4575,237,1261];
requirement=[627,256,281,752,487,325,647,308,748,220,493,492,614,202,839,582,452,744,370,737,388,463,632,822,921];
capacity=[529,837,570,793,253,879,881,655,806,785];
